NAME: ch150
COMMENT: Quick (5min) local search tour for ch150 (7638.692423810045)
TYPE: TOUR
DIMENSION: 150
TOUR_SECTION: 1 98 103 82 95 107 5 100 143 97 124 52 96 89 8 35 93 126 105 111 131 32 23 38 67 43 109 51 53 118 127 69 36 61 11 148 130 17 66 60 140 74 13 106 64 112 136 145 123 91 119 68 128 45 4 104 22 125 150 115 71 44 21 78 15 133 77 122 14 80 72 49 147 144 129 27 31 117 57 39 41 101 116 12 24 40 139 47 120 42 6 28 9 37 2 19 99 114 102 108 70 135 86 29 81 110 20 25 141 58 55 50 137 132 65 85 142 18 75 26 146 56 83 90 46 138 134 54 92 33 16 59 79 121 88 94 149 62 3 113 10 48 34 7 84 30 63 73 76 87 -1
EOF